p edge 80 352
e 1 2
e 1 22
e 1 31
e 1 32
e 1 34
e 1 45
e 1 49
e 1 57
e 1 70
e 1 73
e 2 9
e 2 10
e 2 13
e 2 30
e 2 37
e 2 71
e 2 74
e 2 79
e 3 16
e 3 34
e 3 59
e 3 69
e 3 74
e 3 78
e 4 14
e 4 28
e 4 48
e 4 51
e 4 61
e 4 72
e 4 80
e 5 13
e 5 20
e 5 29
e 5 30
e 5 31
e 5 41
e 5 55
e 5 73
e 5 74
e 6 18
e 6 26
e 6 37
e 6 44
e 6 59
e 6 71
e 7 26
e 7 28
e 7 32
e 7 45
e 7 51
e 7 54
e 7 57
e 7 65
e 7 75
e 8 16
e 8 29
e 8 30
e 8 41
e 8 48
e 8 50
e 8 66
e 8 79
e 9 11
e 9 35
e 9 48
e 9 53
e 9 70
e 10 21
e 10 23
e 10 29
e 10 44
e 10 53
e 11 28
e 11 43
e 11 46
e 11 48
e 12 19
e 12 42
e 12 55
e 12 64
e 13 18
e 13 22
e 13 23
e 13 26
e 13 27
e 13 32
e 13 37
e 13 53
e 13 54
e 13 62
e 13 65
e 13 69
e 13 77
e 14 18
e 14 21
e 14 25
e 14 62
e 14 63
e 14 67
e 14 79
e 14 80
e 15 31
e 15 34
e 15 40
e 15 61
e 15 67
e 15 73
e 15 75
e 15 79
e 16 17
e 16 49
e 16 53
e 16 54
e 16 60
e 16 61
e 16 70
e 16 76
e 16 80
e 17 19
e 17 20
e 17 26
e 17 40
e 17 57
e 17 58
e 17 65
e 17 73
e 17 75
e 18 21
e 18 32
e 18 60
e 18 61
e 18 66
e 18 68
e 18 71
e 18 73
e 19 31
e 19 42
e 19 43
e 19 45
e 19 53
e 19 56
e 19 57
e 19 67
e 19 75
e 20 23
e 20 29
e 20 31
e 20 42
e 20 43
e 20 47
e 20 57
e 21 25
e 21 43
e 21 48
e 21 54
e 21 76
e 22 41
e 22 58
e 22 78
e 22 79
e 23 34
e 23 61
e 23 80
e 24 34
e 24 50
e 24 57
e 24 58
e 24 73
e 25 33
e 25 59
e 25 71
e 26 51
e 26 69
e 26 77
e 27 47
e 27 49
e 27 53
e 27 56
e 27 58
e 27 64
e 27 67
e 27 68
e 27 69
e 27 78
e 28 37
e 28 43
e 28 44
e 28 46
e 28 50
e 28 52
e 28 72
e 29 32
e 29 36
e 29 43
e 29 45
e 29 65
e 29 68
e 30 36
e 30 37
e 30 43
e 30 49
e 30 53
e 30 57
e 30 63
e 30 76
e 31 35
e 31 39
e 31 44
e 31 47
e 31 50
e 31 80
e 32 42
e 32 65
e 32 67
e 32 71
e 32 75
e 32 77
e 33 51
e 33 54
e 33 55
e 33 61
e 33 66
e 34 41
e 34 42
e 34 56
e 34 66
e 34 67
e 34 72
e 34 74
e 35 41
e 35 43
e 36 37
e 36 56
e 36 64
e 36 79
e 37 39
e 37 46
e 37 51
e 37 63
e 37 65
e 37 68
e 37 71
e 37 77
e 37 79
e 38 40
e 38 50
e 38 67
e 38 73
e 38 76
e 39 44
e 39 62
e 39 64
e 39 68
e 39 77
e 39 78
e 40 41
e 40 45
e 40 57
e 40 63
e 40 70
e 41 61
e 41 65
e 41 66
e 41 72
e 42 43
e 42 70
e 42 71
e 42 72
e 42 74
e 43 47
e 43 75
e 44 50
e 44 57
e 44 58
e 44 62
e 44 73
e 44 79
e 45 47
e 45 65
e 45 73
e 45 76
e 46 54
e 46 59
e 46 80
e 47 48
e 47 57
e 47 73
e 47 79
e 48 50
e 48 52
e 48 74
e 49 57
e 49 60
e 49 61
e 50 56
e 50 71
e 50 74
e 51 55
e 51 66
e 51 71
e 51 76
e 51 80
e 52 56
e 52 57
e 52 77
e 52 78
e 53 56
e 53 58
e 53 63
e 53 68
e 53 69
e 54 66
e 54 70
e 55 56
e 55 66
e 55 72
e 55 77
e 56 59
e 56 66
e 57 59
e 58 69
e 59 64
e 59 80
e 60 61
e 60 63
e 60 67
e 60 69
e 60 79
e 61 75
e 62 70
e 62 71
e 62 77
e 63 69
e 64 74
e 64 76
e 65 70
e 65 80
e 66 79
e 67 70
e 67 73
e 68 72
e 68 75
e 68 77
e 69 74
e 70 73
e 71 76
e 72 73
e 74 75
e 74 76
e 77 79
e 79 80
